69662.14
0 1 3 5 16 17 24 21 19 18 20 22 23 25 26 27 28 29 30 15 14 31 32 35 36 34 33 42 58 59 60 57 55 53 51 49 46 44 43 45 47 48 50 52 54 56 61 62 63 64 65 66 67 68 69 70 71 39 41 40 38 37 13 12 11 8 6 7 9 10 128 126 124 122 120 121 123 125 127 129 131 130 119 118 117 108 93 77 76 75 74 72 73 99 100 105 103 102 104 101 98 97 106 107 96 95 94 109 110 111 92 91 90 79 78 80 81 82 83 84 85 86 87 88 89 112 113 114 115 116 142 143 141 139 137 135 133 132 134 136 138 140 4 2